
include ${pot}.lmp
include kalj.lmp
units lj
atom_style atomic

variable dimensions equal 3
variable density equal 1.2
variable fraca equal 0.8

dimension ${dimensions}
dimension 3
read_restart ${prevbasename}.final.lmprestart.${steps}
read_restart equil/kalj_T1_n360_v300_50000_1.final.lmprestart.${steps}
read_restart equil/kalj_T1_n360_v300_50000_1.final.lmprestart.50000
Reading restart file ...
  restart file = 15 Sep 2022, LAMMPS = 15 Sep 2022
WARNING: Restart file used different # of processors: 2 vs. 4 (src/read_restart.cpp:659)
  restoring atom style atomic from restart
  orthogonal box = (0 0 0) to (6.6943295 6.6943295 6.6943295)
  1 by 2 by 2 MPI processor grid
  restoring pair style lj/cut from restart
  360 atoms
  read_restart CPU = 0.006 seconds
include ${pot}_particles.lmp
include kalj_particles.lmp
mass * 1.0 #  set mass 1.0 for all types

pair_style lj/cut 2.5
#pair coeffs type1 type2 eps sigma
pair_coeff 1 1 1.0 1.00 2.5
pair_coeff 1 2 1.5 0.80 2.0
pair_coeff 2 2 0.5 0.88 2.2
pair_modify shift yes
reset_timestep 0

print "Setting up equilibration run"
Setting up equilibration run
variable dumptime2 equal ${steps}/2000
variable dumptime2 equal 50000/2000
dump 1 all dcd ${dumptime2} ${basename}.unwrap.dcd
dump 1 all dcd 25 ${basename}.unwrap.dcd
dump 1 all dcd 25 prod/kalj_T1_n360_v300_prod_50000_1.unwrap.dcd
#dump 2 all dcd ${dumptime2} ${basename}.dcd
dump_modify 1 unwrap yes
#dump_modify 2 unwrap no

restart ${restarttime} ${basename}.restart
restart 30000 ${basename}.restart
restart 30000 prod/kalj_T1_n360_v300_prod_50000_1.restart
restart ${steps} ${basename}.final.lmprestart
restart 50000 ${basename}.final.lmprestart
restart 50000 prod/kalj_T1_n360_v300_prod_50000_1.final.lmprestart

thermo ${thermotime}
thermo 2000
timestep ${timestep}
timestep 0.002

neighbor 0.5 bin
neigh_modify every 1 delay ${neighborstep} check yes
neigh_modify every 1 delay 20 check yes

#velocity all create ${temp} ${id} dist gaussian
fix 1 all nvt temp ${temp} ${temp} ${taut}
fix 1 all nvt temp 1 ${temp} ${taut}
fix 1 all nvt temp 1 1 ${taut}
fix 1 all nvt temp 1 1 0.2
Resetting global fix info from restart file:
  fix style: nvt, fix ID: 1

variable steps4 equal ${steps}/4
variable steps4 equal 50000/4
run ${steps4}
run 12500
Generated 0 of 1 mixed pair_coeff terms from geometric mixing rule
All restart file global fix info was re-assigned
Neighbor list info ...
  update: every = 1 steps, delay = 20 steps, check = yes
  max neighbors/atom: 2000, page size: 100000
  master list distance cutoff = 3
  ghost atom cutoff = 3
  binsize = 1.5, bins = 5 5 5
  1 neighbor lists, perpetual/occasional/extra = 1 0 0
  (1) pair lj/cut, perpetual
      attributes: half, newton on
      pair build: half/bin/atomonly/newton
      stencil: half/bin/3d
      bin: standard
Per MPI rank memory allocation (min/avg/max) = 3.139 | 3.139 | 3.14 Mbytes
   Step          Temp          E_pair         E_mol          TotEng         Press     
         0   0.97243269    -6.0712871      0             -4.6166899      9.5099962    
      2000   0.94581114    -6.0031184      0             -4.5883425      9.7772925    
      4000   0.9601735     -6.0603822      0             -4.6241227      9.5441875    
      6000   0.93719173    -6.0720242      0             -4.6701416      9.5160996    
      8000   1.0112101     -5.9545709      0             -4.4419692      10.286253    
     10000   0.99114611    -5.9311119      0             -4.4485225      10.511209    
     12000   1.0016614     -6.1084605      0             -4.610142       9.3711141    
     12500   0.97612668    -6.100544       0             -4.6404211      9.2750533    
Loop time of 1.35421 on 4 procs for 12500 steps with 360 atoms

Performance: 1595029.837 tau/day, 9230.497 timesteps/s, 3.323 Matom-step/s
99.4% CPU use with 4 MPI tasks x 1 OpenMP threads

MPI task timing breakdown:
Section |  min time  |  avg time  |  max time  |%varavg| %total
---------------------------------------------------------------
Pair    | 0.64505    | 0.65439    | 0.67964    |   1.8 | 48.32
Neigh   | 0.056832   | 0.058155   | 0.060919   |   0.7 |  4.29
Comm    | 0.51606    | 0.52358    | 0.52966    |   0.8 | 38.66
Output  | 0.022241   | 0.027148   | 0.034715   |   2.8 |  2.00
Modify  | 0.039407   | 0.064689   | 0.086627   |   6.6 |  4.78
Other   |            | 0.02624    |            |       |  1.94

Nlocal:             90 ave          92 max          89 min
Histogram: 2 0 0 1 0 0 0 0 0 1
Nghost:           1241 ave        1259 max        1225 min
Histogram: 1 0 1 0 0 0 1 0 0 1
Neighs:           5185 ave        5303 max        4997 min
Histogram: 1 0 0 0 0 0 1 0 1 1

Total # of neighbors = 20740
Ave neighs/atom = 57.611111
Neighbor list builds = 342
Dangerous builds = 0
Total wall time: 0:00:01
