
include ${pot}.lmp
include kalj.lmp
units lj
atom_style atomic

variable dimensions equal 3
variable density equal 1.2
variable fraca equal 0.8

dimension ${dimensions}
dimension 3
read_restart ${prevbasename}.final.lmprestart.${steps}
read_restart equil/kalj_T0.55_n360_v300_3000000_1.final.lmprestart.${steps}
read_restart equil/kalj_T0.55_n360_v300_3000000_1.final.lmprestart.3000000
Reading restart file ...
  restart file = 15 Sep 2022, LAMMPS = 15 Sep 2022
WARNING: Restart file used different # of processors: 2 vs. 4 (src/read_restart.cpp:659)
  restoring atom style atomic from restart
  orthogonal box = (0 0 0) to (6.6943295 6.6943295 6.6943295)
  1 by 2 by 2 MPI processor grid
  restoring pair style lj/cut from restart
  360 atoms
  read_restart CPU = 0.023 seconds
include ${pot}_particles.lmp
include kalj_particles.lmp
mass * 1.0 #  set mass 1.0 for all types

pair_style lj/cut 2.5
#pair coeffs type1 type2 eps sigma
pair_coeff 1 1 1.0 1.00 2.5
pair_coeff 1 2 1.5 0.80 2.0
pair_coeff 2 2 0.5 0.88 2.2
pair_modify shift yes
reset_timestep 0

print "Setting up equilibration run"
Setting up equilibration run
variable dumptime2 equal ${steps}/2000
variable dumptime2 equal 3000000/2000
dump 1 all dcd ${dumptime2} ${basename}.unwrap.dcd
dump 1 all dcd 1500 ${basename}.unwrap.dcd
dump 1 all dcd 1500 prod/kalj_T0.55_n360_v300_prod_3000000_1.unwrap.dcd
#dump 2 all dcd ${dumptime2} ${basename}.dcd
dump_modify 1 unwrap yes
#dump_modify 2 unwrap no

restart ${restarttime} ${basename}.restart
restart 3000000 ${basename}.restart
restart 3000000 prod/kalj_T0.55_n360_v300_prod_3000000_1.restart
restart ${steps} ${basename}.final.lmprestart
restart 3000000 ${basename}.final.lmprestart
restart 3000000 prod/kalj_T0.55_n360_v300_prod_3000000_1.final.lmprestart

thermo ${thermotime}
thermo 30000
timestep ${timestep}
timestep 0.003

neighbor 0.5 bin
neigh_modify every 1 delay ${neighborstep} check yes
neigh_modify every 1 delay 25 check yes

#velocity all create ${temp} ${id} dist gaussian
fix 1 all nvt temp ${temp} ${temp} ${taut}
fix 1 all nvt temp 0.55 ${temp} ${taut}
fix 1 all nvt temp 0.55 0.55 ${taut}
fix 1 all nvt temp 0.55 0.55 0.3
Resetting global fix info from restart file:
  fix style: nvt, fix ID: 1

variable steps4 equal ${steps}/4
variable steps4 equal 3000000/4
run ${steps4}
run 750000
Generated 0 of 1 mixed pair_coeff terms from geometric mixing rule
All restart file global fix info was re-assigned
Neighbor list info ...
  update: every = 1 steps, delay = 25 steps, check = yes
  max neighbors/atom: 2000, page size: 100000
  master list distance cutoff = 3
  ghost atom cutoff = 3
  binsize = 1.5, bins = 5 5 5
  1 neighbor lists, perpetual/occasional/extra = 1 0 0
  (1) pair lj/cut, perpetual
      attributes: half, newton on
      pair build: half/bin/atomonly/newton
      stencil: half/bin/3d
      bin: standard
Per MPI rank memory allocation (min/avg/max) = 3.137 | 3.138 | 3.139 Mbytes
   Step          Temp          E_pair         E_mol          TotEng         Press     
         0   0.56058396    -6.7418601      0             -5.90332        4.9290908    
     30000   0.53245586    -6.7335182      0             -5.9370529      5.0428162    
     60000   0.60433653    -6.9174204      0             -6.0134336      3.6372899    
     90000   0.52534317    -6.842178       0             -6.0563521      4.1986332    
    120000   0.57332766    -6.8108125      0             -5.9532098      4.5126618    
    150000   0.54381099    -6.7609192      0             -5.9474686      4.6932435    
    180000   0.54403812    -6.8570528      0             -6.0432625      4.2468881    
    210000   0.51613679    -6.8231984      0             -6.0511438      4.3658728    
    240000   0.55928789    -6.8175471      0             -5.9809456      4.3765411    
    270000   0.58550384    -6.7823558      0             -5.9065396      4.7056482    
    300000   0.57325714    -6.7922689      0             -5.9347718      4.646195     
    330000   0.51591088    -6.7978611      0             -6.0261444      4.4469068    
    360000   0.554264      -6.7966747      0             -5.9675882      4.5575081    
    390000   0.53653186    -6.7851829      0             -5.9826207      4.5224012    
    420000   0.55695332    -6.7821957      0             -5.9490864      4.5478106    
    450000   0.55495179    -6.7460006      0             -5.9158852      4.9902996    
    480000   0.5609673     -6.8249108      0             -5.9857972      4.1989266    
    510000   0.59042182    -6.8347266      0             -5.9515539      4.3765937    
    540000   0.54135339    -6.7913613      0             -5.9815869      4.6436675    
    570000   0.60992425    -6.7854116      0             -5.8730666      4.478152     
    600000   0.5275049     -6.7815924      0             -5.992533       4.5340416    
    630000   0.5303382     -6.8039169      0             -6.0106194      4.6668813    
    660000   0.57100937    -6.8196185      0             -5.9654837      4.3790145    
    690000   0.53916763    -6.7577505      0             -5.9512456      4.6745028    
    720000   0.53438849    -6.812209       0             -6.0128529      4.5473439    
    750000   0.56954755    -6.8229163      0             -5.9709681      4.436315     
Loop time of 77.9562 on 4 procs for 750000 steps with 360 atoms

Performance: 2493706.605 tau/day, 9620.782 timesteps/s, 3.463 Matom-step/s
99.7% CPU use with 4 MPI tasks x 1 OpenMP threads

MPI task timing breakdown:
Section |  min time  |  avg time  |  max time  |%varavg| %total
---------------------------------------------------------------
Pair    | 37.759     | 39.248     | 40.262     |  15.3 | 50.35
Neigh   | 3.5387     | 3.6035     | 3.638      |   2.1 |  4.62
Comm    | 29.662     | 30.283     | 31.194     |  10.5 | 38.85
Output  | 0.039187   | 0.044784   | 0.054565   |   2.8 |  0.06
Modify  | 2.8658     | 3.7275     | 4.5292     |  30.9 |  4.78
Other   |            | 1.05       |            |       |  1.35

Nlocal:             90 ave          93 max          87 min
Histogram: 1 1 0 0 0 0 0 0 1 1
Nghost:        1273.25 ave        1291 max        1255 min
Histogram: 1 0 1 0 0 0 0 1 0 1
Neighs:        5190.75 ave        5381 max        4932 min
Histogram: 1 0 0 1 0 0 0 0 0 2

Total # of neighbors = 20763
Ave neighs/atom = 57.675
Neighbor list builds = 21222
Dangerous builds = 152
Total wall time: 0:01:18
