
include ${pot}.lmp
include kalj.lmp
units lj
atom_style atomic

variable dimensions equal 3
variable density equal 1.2
variable fraca equal 0.8

dimension ${dimensions}
dimension 3
read_restart ${prevbasename}.final.lmprestart.${steps}
read_restart equil/kalj_T0.7_n360_v300_180000_1.final.lmprestart.${steps}
read_restart equil/kalj_T0.7_n360_v300_180000_1.final.lmprestart.180000
Reading restart file ...
  restart file = 15 Sep 2022, LAMMPS = 15 Sep 2022
WARNING: Restart file used different # of processors: 2 vs. 4 (src/read_restart.cpp:659)
  restoring atom style atomic from restart
  orthogonal box = (0 0 0) to (6.6943295 6.6943295 6.6943295)
  1 by 2 by 2 MPI processor grid
  restoring pair style lj/cut from restart
  360 atoms
  read_restart CPU = 0.009 seconds
include ${pot}_particles.lmp
include kalj_particles.lmp
mass * 1.0 #  set mass 1.0 for all types

pair_style lj/cut 2.5
#pair coeffs type1 type2 eps sigma
pair_coeff 1 1 1.0 1.00 2.5
pair_coeff 1 2 1.5 0.80 2.0
pair_coeff 2 2 0.5 0.88 2.2
pair_modify shift yes
reset_timestep 0

print "Setting up equilibration run"
Setting up equilibration run
variable dumptime2 equal ${steps}/2000
variable dumptime2 equal 180000/2000
dump 1 all dcd ${dumptime2} ${basename}.unwrap.dcd
dump 1 all dcd 90 ${basename}.unwrap.dcd
dump 1 all dcd 90 prod/kalj_T0.7_n360_v300_prod_180000_1.unwrap.dcd
#dump 2 all dcd ${dumptime2} ${basename}.dcd
dump_modify 1 unwrap yes
#dump_modify 2 unwrap no

restart ${restarttime} ${basename}.restart
restart 180000 ${basename}.restart
restart 180000 prod/kalj_T0.7_n360_v300_prod_180000_1.restart
restart ${steps} ${basename}.final.lmprestart
restart 180000 ${basename}.final.lmprestart
restart 180000 prod/kalj_T0.7_n360_v300_prod_180000_1.final.lmprestart

thermo ${thermotime}
thermo 6000
timestep ${timestep}
timestep 0.003

neighbor 0.5 bin
neigh_modify every 1 delay ${neighborstep} check yes
neigh_modify every 1 delay 25 check yes

#velocity all create ${temp} ${id} dist gaussian
fix 1 all nvt temp ${temp} ${temp} ${taut}
fix 1 all nvt temp 0.7 ${temp} ${taut}
fix 1 all nvt temp 0.7 0.7 ${taut}
fix 1 all nvt temp 0.7 0.7 0.3
Resetting global fix info from restart file:
  fix style: nvt, fix ID: 1

variable steps4 equal ${steps}/4
variable steps4 equal 180000/4
run ${steps4}
run 45000
Generated 0 of 1 mixed pair_coeff terms from geometric mixing rule
All restart file global fix info was re-assigned
Neighbor list info ...
  update: every = 1 steps, delay = 25 steps, check = yes
  max neighbors/atom: 2000, page size: 100000
  master list distance cutoff = 3
  ghost atom cutoff = 3
  binsize = 1.5, bins = 5 5 5
  1 neighbor lists, perpetual/occasional/extra = 1 0 0
  (1) pair lj/cut, perpetual
      attributes: half, newton on
      pair build: half/bin/atomonly/newton
      stencil: half/bin/3d
      bin: standard
Per MPI rank memory allocation (min/avg/max) = 3.136 | 3.137 | 3.138 Mbytes
   Step          Temp          E_pair         E_mol          TotEng         Press     
         0   0.72538629    -6.5166909      0             -5.4316339      6.3806604    
      6000   0.68812012    -6.4781028      0             -5.4487897      6.697889     
     12000   0.69821522    -6.4529921      0             -5.4085785      6.7661901    
     18000   0.70252265    -6.472267       0             -5.4214102      6.5966496    
     24000   0.69450596    -6.5004112      0             -5.461546       6.5880481    
     30000   0.68301772    -6.5759233      0             -5.5542426      5.8654632    
     36000   0.67707046    -6.5174321      0             -5.5046476      6.1660866    
     42000   0.65577142    -6.47833        0             -5.4974053      6.6010269    
     45000   0.67847408    -6.5635826      0             -5.5486984      6.1548681    
Loop time of 4.80407 on 4 procs for 45000 steps with 360 atoms

Performance: 2427941.884 tau/day, 9367.060 timesteps/s, 3.372 Matom-step/s
99.6% CPU use with 4 MPI tasks x 1 OpenMP threads

MPI task timing breakdown:
Section |  min time  |  avg time  |  max time  |%varavg| %total
---------------------------------------------------------------
Pair    | 2.2916     | 2.37       | 2.4295     |   3.9 | 49.33
Neigh   | 0.24346    | 0.25003    | 0.25761    |   1.3 |  5.20
Comm    | 1.8421     | 1.8684     | 1.9105     |   1.9 | 38.89
Output  | 0.029453   | 0.03471    | 0.043342   |   2.8 |  0.72
Modify  | 0.16276    | 0.22809    | 0.29179    |  11.9 |  4.75
Other   |            | 0.05277    |            |       |  1.10

Nlocal:             90 ave          93 max          85 min
Histogram: 1 0 0 0 0 0 1 0 1 1
Nghost:        1228.75 ave        1248 max        1214 min
Histogram: 2 0 0 0 0 0 1 0 0 1
Neighs:           5189 ave        5346 max        4992 min
Histogram: 1 0 0 1 0 0 0 0 1 1

Total # of neighbors = 20756
Ave neighs/atom = 57.655556
Neighbor list builds = 1474
Dangerous builds = 90
Total wall time: 0:00:04
