
include ${pot}.lmp
include kalj.lmp
units lj
atom_style atomic

variable dimensions equal 3
variable density equal 1.2
variable fraca equal 0.8

dimension ${dimensions}
dimension 3
read_restart ${prevbasename}.final.lmprestart.${steps}
read_restart equil/kalj_T0.8_n360_v300_150000_1.final.lmprestart.${steps}
read_restart equil/kalj_T0.8_n360_v300_150000_1.final.lmprestart.150000
Reading restart file ...
  restart file = 15 Sep 2022, LAMMPS = 15 Sep 2022
WARNING: Restart file used different # of processors: 2 vs. 4 (src/read_restart.cpp:659)
  restoring atom style atomic from restart
  orthogonal box = (0 0 0) to (6.6943295 6.6943295 6.6943295)
  1 by 2 by 2 MPI processor grid
  restoring pair style lj/cut from restart
  360 atoms
  read_restart CPU = 0.038 seconds
include ${pot}_particles.lmp
include kalj_particles.lmp
mass * 1.0 #  set mass 1.0 for all types

pair_style lj/cut 2.5
#pair coeffs type1 type2 eps sigma
pair_coeff 1 1 1.0 1.00 2.5
pair_coeff 1 2 1.5 0.80 2.0
pair_coeff 2 2 0.5 0.88 2.2
pair_modify shift yes
reset_timestep 0

print "Setting up equilibration run"
Setting up equilibration run
variable dumptime2 equal ${steps}/2000
variable dumptime2 equal 150000/2000
dump 1 all dcd ${dumptime2} ${basename}.unwrap.dcd
dump 1 all dcd 75 ${basename}.unwrap.dcd
dump 1 all dcd 75 prod/kalj_T0.8_n360_v300_prod_150000_1.unwrap.dcd
#dump 2 all dcd ${dumptime2} ${basename}.dcd
dump_modify 1 unwrap yes
#dump_modify 2 unwrap no

restart ${restarttime} ${basename}.restart
restart 150000 ${basename}.restart
restart 150000 prod/kalj_T0.8_n360_v300_prod_150000_1.restart
restart ${steps} ${basename}.final.lmprestart
restart 150000 ${basename}.final.lmprestart
restart 150000 prod/kalj_T0.8_n360_v300_prod_150000_1.final.lmprestart

thermo ${thermotime}
thermo 5000
timestep ${timestep}
timestep 0.002

neighbor 0.5 bin
neigh_modify every 1 delay ${neighborstep} check yes
neigh_modify every 1 delay 25 check yes

#velocity all create ${temp} ${id} dist gaussian
fix 1 all nvt temp ${temp} ${temp} ${taut}
fix 1 all nvt temp 0.8 ${temp} ${taut}
fix 1 all nvt temp 0.8 0.8 ${taut}
fix 1 all nvt temp 0.8 0.8 0.2
Resetting global fix info from restart file:
  fix style: nvt, fix ID: 1

variable steps4 equal ${steps}/4
variable steps4 equal 150000/4
run ${steps4}
run 37500
Generated 0 of 1 mixed pair_coeff terms from geometric mixing rule
All restart file global fix info was re-assigned
Neighbor list info ...
  update: every = 1 steps, delay = 25 steps, check = yes
  max neighbors/atom: 2000, page size: 100000
  master list distance cutoff = 3
  ghost atom cutoff = 3
  binsize = 1.5, bins = 5 5 5
  1 neighbor lists, perpetual/occasional/extra = 1 0 0
  (1) pair lj/cut, perpetual
      attributes: half, newton on
      pair build: half/bin/atomonly/newton
      stencil: half/bin/3d
      bin: standard
Per MPI rank memory allocation (min/avg/max) = 3.137 | 3.137 | 3.137 Mbytes
   Step          Temp          E_pair         E_mol          TotEng         Press     
         0   0.81242607    -6.2806569      0             -5.0654029      7.9673077    
      5000   0.8070471     -6.3511342      0             -5.1439262      7.4555938    
     10000   0.79852905    -6.3530208      0             -5.1585544      7.5646836    
     15000   0.82703441    -6.3913785      0             -5.1542728      7.2711537    
     20000   0.78626579    -6.3644176      0             -5.1882951      7.6032331    
     25000   0.73046119    -6.262479       0             -5.1698308      7.9903813    
     30000   0.80903803    -6.3651075      0             -5.1549214      7.4266915    
     35000   0.81624069    -6.3140147      0             -5.0930547      7.7143095    
     37500   0.7406652     -6.3079057      0             -5.199994       7.8374307    
Loop time of 3.91406 on 4 procs for 37500 steps with 360 atoms

Performance: 1655570.356 tau/day, 9580.847 timesteps/s, 3.449 Matom-step/s
99.6% CPU use with 4 MPI tasks x 1 OpenMP threads

MPI task timing breakdown:
Section |  min time  |  avg time  |  max time  |%varavg| %total
---------------------------------------------------------------
Pair    | 1.8618     | 1.9409     | 2.0024     |   3.9 | 49.59
Neigh   | 0.1498     | 0.15262    | 0.15518    |   0.6 |  3.90
Comm    | 1.4932     | 1.5375     | 1.6051     |   3.5 | 39.28
Output  | 0.028042   | 0.033002   | 0.04145    |   2.8 |  0.84
Modify  | 0.16277    | 0.18406    | 0.20374    |   4.4 |  4.70
Other   |            | 0.06592    |            |       |  1.68

Nlocal:             90 ave          95 max          87 min
Histogram: 1 0 2 0 0 0 0 0 0 1
Nghost:        1239.25 ave        1247 max        1231 min
Histogram: 1 0 0 0 0 2 0 0 0 1
Neighs:        5181.25 ave        5340 max        5086 min
Histogram: 1 0 2 0 0 0 0 0 0 1

Total # of neighbors = 20725
Ave neighs/atom = 57.569444
Neighbor list builds = 900
Dangerous builds = 0
Total wall time: 0:00:03
