
include ${pot}.lmp
include kalj.lmp
units lj
atom_style atomic

variable dimensions equal 3
variable density equal 1.2
variable fraca equal 0.8

dimension ${dimensions}
dimension 3
read_restart ${prevbasename}.final.lmprestart.${prevsteps}
read_restart equil/kalj_T0.55_n360_v300_3000000_1.final.lmprestart.${prevsteps}
read_restart equil/kalj_T0.55_n360_v300_3000000_1.final.lmprestart.3000000
Reading restart file ...
  restart file = 15 Sep 2022, LAMMPS = 15 Sep 2022
  restoring atom style atomic from restart
  orthogonal box = (0 0 0) to (6.6943295 6.6943295 6.6943295)
  1 by 1 by 2 MPI processor grid
  restoring pair style lj/cut from restart
  360 atoms
  read_restart CPU = 0.001 seconds
include ${pot}_particles.lmp
include kalj_particles.lmp
mass * 1.0 #  set mass 1.0 for all types

pair_style lj/cut 2.5
#pair coeffs type1 type2 eps sigma
pair_coeff 1 1 1.0 1.00 2.5
pair_coeff 1 2 1.5 0.80 2.0
pair_coeff 2 2 0.5 0.88 2.2
pair_modify shift yes
reset_timestep 0

print "Setting up annealing run"
Setting up annealing run
dump 1 all atom ${dumptime} ${basename}.lammpstrj
dump 1 all atom 1000000 ${basename}.lammpstrj
dump 1 all atom 1000000 equil/kalj_T0.5_n360_v300_10000000_1.lammpstrj
#dump_modify 1 sort id scale no

restart ${restarttime} ${basename}.restart
restart 10000000 ${basename}.restart
restart 10000000 equil/kalj_T0.5_n360_v300_10000000_1.restart
restart ${steps} ${basename}.final.lmprestart
restart 10000000 ${basename}.final.lmprestart
restart 10000000 equil/kalj_T0.5_n360_v300_10000000_1.final.lmprestart

thermo ${thermotime}
thermo 100000
timestep ${timestep}
timestep 0.003

neighbor 0.5 bin
neigh_modify every 1 delay ${neighborstep} check yes
neigh_modify every 1 delay 25 check yes

velocity all create ${temp} ${id} dist gaussian
velocity all create 0.5 ${id} dist gaussian
velocity all create 0.5 1 dist gaussian
fix 1 all nvt temp ${temp} ${temp} ${taut}
fix 1 all nvt temp 0.5 ${temp} ${taut}
fix 1 all nvt temp 0.5 0.5 ${taut}
fix 1 all nvt temp 0.5 0.5 0.3
Resetting global fix info from restart file:
  fix style: nvt, fix ID: 1
run ${steps}
run 10000000
Generated 0 of 1 mixed pair_coeff terms from geometric mixing rule
All restart file global fix info was re-assigned
Neighbor list info ...
  update: every = 1 steps, delay = 25 steps, check = yes
  max neighbors/atom: 2000, page size: 100000
  master list distance cutoff = 3
  ghost atom cutoff = 3
  binsize = 1.5, bins = 5 5 5
  1 neighbor lists, perpetual/occasional/extra = 1 0 0
  (1) pair lj/cut, perpetual
      attributes: half, newton on
      pair build: half/bin/atomonly/newton
      stencil: half/bin/3d
      bin: standard
Per MPI rank memory allocation (min/avg/max) = 4.145 | 4.145 | 4.145 Mbytes
   Step          Temp          E_pair         E_mol          TotEng         Press     
         0   0.5           -6.7418601      0             -5.9939435      4.856592     
    100000   0.49120729    -6.8778615      0             -6.1430972      3.914689     
    200000   0.51654696    -6.9142851      0             -6.1416169      3.6457017    
    300000   0.48305033    -6.9202205      0             -6.1976577      3.6103809    
    400000   0.48562798    -6.8952767      0             -6.1688581      3.776177     
    500000   0.4839049     -6.9382699      0             -6.2144289      3.5831886    
    600000   0.54030056    -6.9194957      0             -6.1112961      3.5972305    
    700000   0.47183997    -6.8944505      0             -6.1886565      3.8267546    
    800000   0.52284022    -6.8806216      0             -6.0985398      3.8518611    
    900000   0.50750737    -6.8522861      0             -6.0931397      4.207434     
   1000000   0.50572162    -6.8782985      0             -6.1218233      4.159995     
   1100000   0.49144769    -6.898925       0             -6.1638011      3.9183526    
   1200000   0.49377891    -6.9116801      0             -6.1730692      3.7397999    
   1300000   0.51906704    -6.8864799      0             -6.1100421      3.9310002    
   1400000   0.48971329    -6.983775       0             -6.2512455      3.1613888    
   1500000   0.46935409    -6.9064481      0             -6.2043726      3.7631975    
   1600000   0.47445898    -6.8930826      0             -6.183371       3.7825198    
   1700000   0.47795709    -6.8762293      0             -6.1612851      3.751049     
   1800000   0.51736055    -6.8868303      0             -6.1129451      3.9428117    
   1900000   0.49408023    -6.8958197      0             -6.1567581      3.818542     
   2000000   0.51655057    -6.8364833      0             -6.0638097      4.1809028    
   2100000   0.53575151    -6.8723358      0             -6.0709408      3.9259324    
   2200000   0.47474265    -6.910065       0             -6.1999291      3.7897146    
   2300000   0.49013468    -6.930868       0             -6.1977082      3.5360624    
   2400000   0.51236513    -6.9356955      0             -6.1692827      3.5116342    
   2500000   0.50015335    -6.8824743      0             -6.1343282      3.9568842    
   2600000   0.48978345    -6.8868068      0             -6.1541724      3.9380644    
   2700000   0.50343044    -6.876631       0             -6.1235829      3.9468767    
   2800000   0.50487566    -6.8941953      0             -6.1389855      3.9443238    
   2900000   0.50341307    -6.8704653      0             -6.1174433      4.0360222    
   3000000   0.52862044    -6.9314572      0             -6.1407291      3.6253508    
   3100000   0.50645989    -6.856847       0             -6.0992674      4.0553356    
   3200000   0.46241887    -6.8695231      0             -6.1778216      4.1424337    
   3300000   0.52314021    -6.8989096      0             -6.1163791      3.7735052    
   3400000   0.48432205    -6.9045126      0             -6.1800476      3.7871683    
   3500000   0.48466909    -6.9139297      0             -6.1889455      3.739022     
   3600000   0.52156443    -6.8901436      0             -6.1099701      3.9279511    
   3700000   0.44547166    -6.8796504      0             -6.213299       3.8989898    
   3800000   0.52320124    -6.9440835      0             -6.1614616      3.5139395    
   3900000   0.49558003    -6.8388011      0             -6.097496       4.0858098    
   4000000   0.50589635    -6.9564288      0             -6.1996921      3.521881     
   4100000   0.49303397    -6.8276836      0             -6.0901869      4.338333     
   4200000   0.48699571    -6.8995521      0             -6.1710876      4.1020159    
   4300000   0.510312      -6.8519247      0             -6.088583       4.3107943    
   4400000   0.51963746    -6.9263958      0             -6.1491048      3.5204954    
   4500000   0.52349917    -6.8944759      0             -6.1114084      3.9121817    
   4600000   0.5339575     -6.8629228      0             -6.0642113      4.0416821    
   4700000   0.50673891    -6.8670566      0             -6.1090596      4.0758939    
   4800000   0.50683372    -6.8850489      0             -6.1269101      3.953334     
   4900000   0.48552338    -6.8790082      0             -6.1527462      3.9004194    
   5000000   0.48335098    -6.8836388      0             -6.1606263      3.8463192    
   5100000   0.49167971    -6.9518476      0             -6.2163767      3.3817413    
   5200000   0.50024678    -6.9102942      0             -6.1620083      3.7988674    
   5300000   0.49932377    -6.9274593      0             -6.1805541      3.7162493    
   5400000   0.49927141    -6.9379098      0             -6.191083       3.4318911    
   5500000   0.46608276    -6.8563773      0             -6.1591952      4.0769686    
   5600000   0.47669406    -6.878897       0             -6.1658421      3.9546839    
   5700000   0.48938686    -6.8791383      0             -6.1470972      4.0186052    
   5800000   0.52190891    -6.8691899      0             -6.0885011      3.9629436    
   5900000   0.4850286     -6.9281941      0             -6.2026722      3.6394447    
   6000000   0.51579721    -6.8616672      0             -6.0901206      4.1897547    
   6100000   0.48549173    -6.9095022      0             -6.1832875      3.8373708    
   6200000   0.50172998    -6.8536259      0             -6.1031215      4.0015035    
   6300000   0.55552397    -6.8689565      0             -6.0379852      4.0150989    
   6400000   0.48017657    -6.8681554      0             -6.1498912      3.9627915    
   6500000   0.50809354    -6.8918303      0             -6.131807       4.0055791    
   6600000   0.46299727    -6.9028388      0             -6.210272       3.8191637    
   6700000   0.50465399    -6.9122582      0             -6.15738        3.7652349    
   6800000   0.50594573    -6.9135483      0             -6.1567379      3.6238057    
   6900000   0.48947254    -6.9399882      0             -6.2078189      3.481473     
   7000000   0.47697854    -6.9005742      0             -6.1870938      3.8091652    
   7100000   0.52142185    -6.9203268      0             -6.1403666      3.6364555    
   7200000   0.47140306    -6.9854005      0             -6.2802601      3.1917688    
   7300000   0.52545633    -6.8498113      0             -6.0638162      4.1669301    
   7400000   0.45229316    -6.8696199      0             -6.1930647      4.1111692    
   7500000   0.50720129    -6.8765603      0             -6.1178717      3.9399663    
   7600000   0.49513786    -6.9044202      0             -6.1637765      3.8531223    
   7700000   0.48259879    -6.8788466      0             -6.1569593      4.1074952    
   7800000   0.51333902    -6.84912        0             -6.0812503      4.1697585    
   7900000   0.48167214    -6.9041336      0             -6.1836323      3.8430326    
   8000000   0.53875064    -6.8594388      0             -6.0535576      4.0793687    
   8100000   0.4852296     -6.9609168      0             -6.2350942      3.4489815    
   8200000   0.51045081    -6.9576585      0             -6.1941091      3.5605553    
   8300000   0.50158609    -6.9514614      0             -6.2011722      3.6035101    
   8400000   0.5130505     -6.8527164      0             -6.0852783      4.249679     
   8500000   0.49079245    -6.9753824      0             -6.2412387      3.3071611    
   8600000   0.49731145    -7.0242038      0             -6.2803088      3.1049734    
   8700000   0.47185079    -6.9214401      0             -6.2156299      3.6720889    
   8800000   0.53739192    -6.8953318      0             -6.0914831      3.747471     
   8900000   0.47239824    -6.9162195      0             -6.2095904      3.6020556    
   9000000   0.46654758    -6.8921824      0             -6.194305       3.8653855    
   9100000   0.50038419    -6.8914242      0             -6.1429329      3.8922378    
   9200000   0.51383922    -6.918579       0             -6.1499611      3.6650571    
   9300000   0.47272717    -6.8815923      0             -6.1744712      3.9440047    
   9400000   0.51477009    -6.9254595      0             -6.1554492      3.6196378    
   9500000   0.50323276    -6.9051971      0             -6.1524448      3.6844263    
   9600000   0.4713845     -6.9132975      0             -6.2081849      3.8516047    
   9700000   0.52463322    -6.9544224      0             -6.1696585      3.4695577    
   9800000   0.52964596    -6.8866258      0             -6.0943637      3.9698366    
   9900000   0.49101331    -6.8764243      0             -6.1419502      3.9192076    
  10000000   0.48122849    -6.9302858      0             -6.2104482      3.6692947    
Loop time of 1623.03 on 2 procs for 10000000 steps with 360 atoms

Performance: 1597012.042 tau/day, 6161.312 timesteps/s, 2.218 Matom-step/s
99.7% CPU use with 2 MPI tasks x 1 OpenMP threads

MPI task timing breakdown:
Section |  min time  |  avg time  |  max time  |%varavg| %total
---------------------------------------------------------------
Pair    | 1145.7     | 1156.6     | 1167.5     |  32.1 | 71.26
Neigh   | 87.904     | 89.353     | 90.802     |  15.3 |  5.51
Comm    | 305.66     | 315.99     | 326.31     |  58.1 | 19.47
Output  | 0.0062694  | 0.0070361  | 0.0078029  |   0.9 |  0.00
Modify  | 45.332     | 47.356     | 49.38      |  29.4 |  2.92
Other   |            | 13.72      |            |       |  0.85

Nlocal:            180 ave         182 max         178 min
Histogram: 1 0 0 0 0 0 0 0 0 1
Nghost:         1613.5 ave        1616 max        1611 min
Histogram: 1 0 0 0 0 0 0 0 0 1
Neighs:          10418 ave       10537 max       10299 min
Histogram: 1 0 0 0 0 0 0 0 0 1

Total # of neighbors = 20836
Ave neighs/atom = 57.877778
Neighbor list builds = 265627
Dangerous builds = 630
Total wall time: 0:27:03
