
include ${pot}.lmp
include kalj.lmp
units lj
atom_style atomic

variable dimensions equal 3
variable density equal 1.2
variable fraca equal 0.8

dimension ${dimensions}
dimension 3
read_restart ${prevbasename}.final.lmprestart.${prevsteps}
read_restart equil/kalj_T0.9_n360_v300_150000_1.final.lmprestart.${prevsteps}
read_restart equil/kalj_T0.9_n360_v300_150000_1.final.lmprestart.150000
Reading restart file ...
  restart file = 15 Sep 2022, LAMMPS = 15 Sep 2022
  restoring atom style atomic from restart
  orthogonal box = (0 0 0) to (6.6943295 6.6943295 6.6943295)
  1 by 1 by 2 MPI processor grid
  restoring pair style lj/cut from restart
  360 atoms
  read_restart CPU = 0.001 seconds
include ${pot}_particles.lmp
include kalj_particles.lmp
mass * 1.0 #  set mass 1.0 for all types

pair_style lj/cut 2.5
#pair coeffs type1 type2 eps sigma
pair_coeff 1 1 1.0 1.00 2.5
pair_coeff 1 2 1.5 0.80 2.0
pair_coeff 2 2 0.5 0.88 2.2
pair_modify shift yes
reset_timestep 0

print "Setting up annealing run"
Setting up annealing run
dump 1 all atom ${dumptime} ${basename}.lammpstrj
dump 1 all atom 50000 ${basename}.lammpstrj
dump 1 all atom 50000 equil/kalj_T0.8_n360_v300_150000_1.lammpstrj
#dump_modify 1 sort id scale no

restart ${restarttime} ${basename}.restart
restart 150000 ${basename}.restart
restart 150000 equil/kalj_T0.8_n360_v300_150000_1.restart
restart ${steps} ${basename}.final.lmprestart
restart 150000 ${basename}.final.lmprestart
restart 150000 equil/kalj_T0.8_n360_v300_150000_1.final.lmprestart

thermo ${thermotime}
thermo 5000
timestep ${timestep}
timestep 0.002

neighbor 0.5 bin
neigh_modify every 1 delay ${neighborstep} check yes
neigh_modify every 1 delay 25 check yes

velocity all create ${temp} ${id} dist gaussian
velocity all create 0.8 ${id} dist gaussian
velocity all create 0.8 1 dist gaussian
fix 1 all nvt temp ${temp} ${temp} ${taut}
fix 1 all nvt temp 0.8 ${temp} ${taut}
fix 1 all nvt temp 0.8 0.8 ${taut}
fix 1 all nvt temp 0.8 0.8 0.2
Resetting global fix info from restart file:
  fix style: nvt, fix ID: 1
run ${steps}
run 150000
Generated 0 of 1 mixed pair_coeff terms from geometric mixing rule
All restart file global fix info was re-assigned
Neighbor list info ...
  update: every = 1 steps, delay = 25 steps, check = yes
  max neighbors/atom: 2000, page size: 100000
  master list distance cutoff = 3
  ghost atom cutoff = 3
  binsize = 1.5, bins = 5 5 5
  1 neighbor lists, perpetual/occasional/extra = 1 0 0
  (1) pair lj/cut, perpetual
      attributes: half, newton on
      pair build: half/bin/atomonly/newton
      stencil: half/bin/3d
      bin: standard
Per MPI rank memory allocation (min/avg/max) = 4.143 | 4.143 | 4.143 Mbytes
   Step          Temp          E_pair         E_mol          TotEng         Press     
         0   0.8           -6.2704213      0             -5.0737546      8.1291155    
      5000   0.79077587    -6.4530355      0             -5.2701666      6.8740745    
     10000   0.84419849    -6.3687476      0             -5.1059674      7.7331592    
     15000   0.80890382    -6.3543097      0             -5.1443244      7.5549515    
     20000   0.80230138    -6.4093276      0             -5.2092185      7.3086548    
     25000   0.8280653     -6.3736755      0             -5.1350278      7.4035523    
     30000   0.78803431    -6.4285124      0             -5.2497444      6.9668355    
     35000   0.79539871    -6.3836186      0             -5.1938347      7.348293     
     40000   0.79739736    -6.3939133      0             -5.2011398      7.5105402    
     45000   0.81630792    -6.32184        0             -5.1007794      7.7934726    
     50000   0.81144627    -6.3218546      0             -5.1080663      7.7627328    
     55000   0.77344015    -6.4279306      0             -5.2709931      7.0960797    
     60000   0.7794892     -6.2921093      0             -5.1261233      7.9540624    
     65000   0.75403169    -6.3394834      0             -5.2115776      7.5122102    
     70000   0.81255321    -6.2557709      0             -5.0403267      8.2735028    
     75000   0.80414183    -6.2585809      0             -5.0557188      8.1852688    
     80000   0.81974709    -6.4055379      0             -5.1793329      7.2612883    
     85000   0.75640115    -6.3495259      0             -5.2180758      7.5600139    
     90000   0.8336029     -6.2270083      0             -4.9800773      8.355623     
     95000   0.7409166     -6.2895872      0             -5.1812995      7.783788     
    100000   0.76439311    -6.4266015      0             -5.2831968      7.0377863    
    105000   0.8358939     -6.1640467      0             -4.9136888      8.8291694    
    110000   0.73305839    -6.4455105      0             -5.3489773      6.8098582    
    115000   0.78660762    -6.4442855      0             -5.2676516      7.121858     
    120000   0.803494      -6.3499179      0             -5.1480248      7.4875236    
    125000   0.77514353    -6.3877674      0             -5.2282818      7.3768975    
    130000   0.76674749    -6.2351316      0             -5.0882052      8.2827232    
    135000   0.78344216    -6.3627374      0             -5.1908385      7.5326309    
    140000   0.81989917    -6.2879395      0             -5.061507       7.9356177    
    145000   0.75018884    -6.3689369      0             -5.2467794      7.4545498    
    150000   0.81242607    -6.2806569      0             -5.0654029      7.9673077    
Loop time of 23.7443 on 2 procs for 150000 steps with 360 atoms

Performance: 1091628.818 tau/day, 6317.296 timesteps/s, 2.274 Matom-step/s
99.7% CPU use with 2 MPI tasks x 1 OpenMP threads

MPI task timing breakdown:
Section |  min time  |  avg time  |  max time  |%varavg| %total
---------------------------------------------------------------
Pair    | 16.762     | 17.032     | 17.302     |   6.5 | 71.73
Neigh   | 1.1789     | 1.1962     | 1.2135     |   1.6 |  5.04
Comm    | 4.4282     | 4.5894     | 4.7506     |   7.5 | 19.33
Output  | 0.0043368  | 0.0044281  | 0.0045194  |   0.1 |  0.02
Modify  | 0.53958    | 0.70266    | 0.86575    |  19.5 |  2.96
Other   |            | 0.2196     |            |       |  0.92

Nlocal:            180 ave         184 max         176 min
Histogram: 1 0 0 0 0 0 0 0 0 1
Nghost:           1620 ave        1644 max        1596 min
Histogram: 1 0 0 0 0 0 0 0 0 1
Neighs:          10381 ave       10595 max       10167 min
Histogram: 1 0 0 0 0 0 0 0 0 1

Total # of neighbors = 20762
Ave neighs/atom = 57.672222
Neighbor list builds = 3584
Dangerous builds = 0
Total wall time: 0:00:23
