
include ${pot}.lmp
include kalj.lmp
units lj
atom_style atomic

variable dimensions equal 3
variable density equal 1.2
variable fraca equal 0.8

dimension ${dimensions}
dimension 3
read_restart ${prevbasename}.final.lmprestart.${prevsteps}
read_restart equil/kalj_T0.6_n360_v300_1000000_1.final.lmprestart.${prevsteps}
read_restart equil/kalj_T0.6_n360_v300_1000000_1.final.lmprestart.1000000
Reading restart file ...
  restart file = 15 Sep 2022, LAMMPS = 15 Sep 2022
  restoring atom style atomic from restart
  orthogonal box = (0 0 0) to (6.6943295 6.6943295 6.6943295)
  1 by 1 by 2 MPI processor grid
  restoring pair style lj/cut from restart
  360 atoms
  read_restart CPU = 0.001 seconds
include ${pot}_particles.lmp
include kalj_particles.lmp
mass * 1.0 #  set mass 1.0 for all types

pair_style lj/cut 2.5
#pair coeffs type1 type2 eps sigma
pair_coeff 1 1 1.0 1.00 2.5
pair_coeff 1 2 1.5 0.80 2.0
pair_coeff 2 2 0.5 0.88 2.2
pair_modify shift yes
reset_timestep 0

print "Setting up annealing run"
Setting up annealing run
dump 1 all atom ${dumptime} ${basename}.lammpstrj
dump 1 all atom 300000 ${basename}.lammpstrj
dump 1 all atom 300000 equil/kalj_T0.55_n360_v300_3000000_1.lammpstrj
#dump_modify 1 sort id scale no

restart ${restarttime} ${basename}.restart
restart 3000000 ${basename}.restart
restart 3000000 equil/kalj_T0.55_n360_v300_3000000_1.restart
restart ${steps} ${basename}.final.lmprestart
restart 3000000 ${basename}.final.lmprestart
restart 3000000 equil/kalj_T0.55_n360_v300_3000000_1.final.lmprestart

thermo ${thermotime}
thermo 30000
timestep ${timestep}
timestep 0.003

neighbor 0.5 bin
neigh_modify every 1 delay ${neighborstep} check yes
neigh_modify every 1 delay 25 check yes

velocity all create ${temp} ${id} dist gaussian
velocity all create 0.55 ${id} dist gaussian
velocity all create 0.55 1 dist gaussian
fix 1 all nvt temp ${temp} ${temp} ${taut}
fix 1 all nvt temp 0.55 ${temp} ${taut}
fix 1 all nvt temp 0.55 0.55 ${taut}
fix 1 all nvt temp 0.55 0.55 0.3
Resetting global fix info from restart file:
  fix style: nvt, fix ID: 1
run ${steps}
run 3000000
Generated 0 of 1 mixed pair_coeff terms from geometric mixing rule
All restart file global fix info was re-assigned
Neighbor list info ...
  update: every = 1 steps, delay = 25 steps, check = yes
  max neighbors/atom: 2000, page size: 100000
  master list distance cutoff = 3
  ghost atom cutoff = 3
  binsize = 1.5, bins = 5 5 5
  1 neighbor lists, perpetual/occasional/extra = 1 0 0
  (1) pair lj/cut, perpetual
      attributes: half, newton on
      pair build: half/bin/atomonly/newton
      stencil: half/bin/3d
      bin: standard
Per MPI rank memory allocation (min/avg/max) = 4.145 | 4.145 | 4.145 Mbytes
   Step          Temp          E_pair         E_mol          TotEng         Press     
         0   0.55          -6.7153804      0             -5.892672       4.9315938    
     30000   0.53450197    -6.8063697      0             -6.0068439      4.4889783    
     60000   0.52909522    -6.7470984      0             -5.9556602      4.6283562    
     90000   0.56555692    -6.8719875      0             -6.0260086      4.070628     
    120000   0.52125296    -6.8404779      0             -6.0607704      4.2347511    
    150000   0.55949303    -6.8439221      0             -6.0070138      4.2485098    
    180000   0.56287487    -6.8337595      0             -5.9917925      4.3483615    
    210000   0.55660188    -6.7607346      0             -5.9281509      4.7933617    
    240000   0.60236511    -6.8275736      0             -5.9265358      4.3955394    
    270000   0.5554589     -6.8458391      0             -6.0149652      4.3153473    
    300000   0.53829782    -6.8110378      0             -6.005834       4.3281006    
    330000   0.56275722    -6.8746937      0             -6.0329027      3.9708749    
    360000   0.50328788    -6.7955023      0             -6.0426675      4.5139018    
    390000   0.52490926    -6.8321467      0             -6.04697        4.4142365    
    420000   0.50616838    -6.7673003      0             -6.0101568      4.5773031    
    450000   0.56736294    -6.7863859      0             -5.9377056      4.6279837    
    480000   0.56381732    -6.7299886      0             -5.8866119      4.9392415    
    510000   0.51286662    -6.8179448      0             -6.0507818      4.2123843    
    540000   0.54431195    -6.7428348      0             -5.9286348      4.7934256    
    570000   0.5656279     -6.8042091      0             -5.9581241      4.3676851    
    600000   0.52972531    -6.7734408      0             -5.98106        4.487202     
    630000   0.51657039    -6.8110457      0             -6.0383425      4.4519776    
    660000   0.536896      -6.8327224      0             -6.0296154      4.2832894    
    690000   0.53848991    -6.7947393      0             -5.9892482      4.5905887    
    720000   0.55340258    -6.8501425      0             -6.0223445      4.2433422    
    750000   0.59561562    -6.7812989      0             -5.8903572      4.5843706    
    780000   0.55802211    -6.877057       0             -6.042349       4.0453397    
    810000   0.56503044    -6.8247598      0             -5.9795684      4.3703258    
    840000   0.55550464    -6.7932769      0             -5.9623345      4.5082166    
    870000   0.54544719    -6.7180726      0             -5.9021745      4.890965     
    900000   0.59979362    -6.7883514      0             -5.8911601      4.5645795    
    930000   0.54227006    -6.7640396      0             -5.952894       4.7166771    
    960000   0.56074524    -6.7786274      0             -5.939846       4.6605642    
    990000   0.53653756    -6.7606616      0             -5.9580908      4.7443609    
   1020000   0.5734272     -6.7821264      0             -5.9243749      4.5747481    
   1050000   0.51888596    -6.7908253      0             -6.0146584      4.45515      
   1080000   0.56560903    -6.8156899      0             -5.969633       4.4166921    
   1110000   0.5704434     -6.8108371      0             -5.9575488      4.4631409    
   1140000   0.52712227    -6.8076802      0             -6.0191931      4.5118404    
   1170000   0.52695228    -6.8021058      0             -6.013873       4.3949239    
   1200000   0.54994268    -6.770792       0             -5.9481694      4.5651238    
   1230000   0.60087601    -6.8045287      0             -5.9057183      4.6034761    
   1260000   0.53435372    -6.8104349      0             -6.0111308      4.4577936    
   1290000   0.58461236    -6.9063807      0             -6.031898       3.8419856    
   1320000   0.59616129    -6.8275006      0             -5.9357427      4.3383556    
   1350000   0.52769109    -6.9062117      0             -6.1168738      3.7359284    
   1380000   0.51951043    -6.7561264      0             -5.9790254      4.761667     
   1410000   0.55316616    -6.7979276      0             -5.9704832      4.5318875    
   1440000   0.55684539    -6.9087586      0             -6.0758107      3.7193358    
   1470000   0.52182084    -6.7347869      0             -5.9542299      4.8395241    
   1500000   0.58014446    -6.7839577      0             -5.9161583      4.5346662    
   1530000   0.52220358    -6.7709508      0             -5.9898213      4.6109948    
   1560000   0.54218425    -6.8363532      0             -6.0253359      4.2703523    
   1590000   0.5585536     -6.7660508      0             -5.9305477      4.7119922    
   1620000   0.53097836    -6.7896241      0             -5.995369       4.5972212    
   1650000   0.53118221    -6.7720228      0             -5.9774627      4.6651387    
   1680000   0.5846992     -6.7693105      0             -5.894698       4.6065855    
   1710000   0.53385763    -6.7590525      0             -5.9604905      4.7277637    
   1740000   0.51592167    -6.8213639      0             -6.049631       4.3496598    
   1770000   0.52213058    -6.7950382      0             -6.0140179      4.5965704    
   1800000   0.58300915    -6.8207771      0             -5.9486926      4.4988753    
   1830000   0.52959852    -6.8351507      0             -6.0429596      4.2195635    
   1860000   0.56349188    -6.8150144      0             -5.9721245      4.3630213    
   1890000   0.57986766    -6.876607       0             -6.0092216      4.0761945    
   1920000   0.56061524    -6.8414876      0             -6.0029006      4.1860984    
   1950000   0.52073226    -6.757489       0             -5.9785603      4.6159029    
   1980000   0.57445836    -6.7508343      0             -5.8915404      4.7709766    
   2010000   0.53693376    -6.8081474      0             -6.0049839      4.3519923    
   2040000   0.55317636    -6.8286192      0             -6.0011595      4.3509061    
   2070000   0.57758422    -6.7658539      0             -5.9018842      4.7249976    
   2100000   0.52450933    -6.8021534      0             -6.0175749      4.4732845    
   2130000   0.52169629    -6.8619252      0             -6.0815545      3.9636836    
   2160000   0.53723211    -6.8104106      0             -6.0068009      4.4227766    
   2190000   0.55557717    -6.7761381      0             -5.9450873      4.6494066    
   2220000   0.58809731    -6.8141852      0             -5.9344896      4.472696     
   2250000   0.54084319    -6.8065434      0             -5.9975321      4.2444171    
   2280000   0.53885892    -6.821246       0             -6.0152029      4.4969605    
   2310000   0.58137587    -6.8319496      0             -5.9623082      4.423254     
   2340000   0.54658765    -6.8121656      0             -5.9945616      4.3594164    
   2370000   0.54579222    -6.795372       0             -5.9789578      4.5140008    
   2400000   0.57544917    -6.7524605      0             -5.8916845      4.8075391    
   2430000   0.56248702    -6.8990783      0             -6.0576915      3.9142541    
   2460000   0.56064992    -6.7944995      0             -5.9558607      4.505927     
   2490000   0.53135736    -6.8531285      0             -6.0583064      4.2929709    
   2520000   0.5388055     -6.8308099      0             -6.0248466      4.2135913    
   2550000   0.57504987    -6.8284019      0             -5.9682231      4.3019183    
   2580000   0.56686499    -6.6801186      0             -5.8321831      5.1395862    
   2610000   0.51589185    -6.8172949      0             -6.0456067      4.2326904    
   2640000   0.56514428    -6.8203116      0             -5.9749499      4.3487124    
   2670000   0.55471575    -6.8266832      0             -5.9969209      4.384142     
   2700000   0.53111948    -6.8164321      0             -6.0219659      4.3294326    
   2730000   0.53979723    -6.7864719      0             -5.9790252      4.4896824    
   2760000   0.50792288    -6.7668173      0             -6.0070493      4.5808917    
   2790000   0.56773115    -6.7744279      0             -5.9251967      4.7432555    
   2820000   0.56054472    -6.777931       0             -5.9394495      4.7346293    
   2850000   0.56750419    -6.7953392      0             -5.9464475      4.5299107    
   2880000   0.54900179    -6.7918132      0             -5.970598       4.5590921    
   2910000   0.58424081    -6.7402691      0             -5.8663423      4.8783893    
   2940000   0.544604      -6.791787       0             -5.9771501      4.5454193    
   2970000   0.55122871    -6.7708704      0             -5.9463241      4.658308     
   3000000   0.56058396    -6.7418601      0             -5.90332        4.9290908    
Loop time of 477.195 on 2 procs for 3000000 steps with 360 atoms

Performance: 1629521.724 tau/day, 6286.735 timesteps/s, 2.263 Matom-step/s
99.7% CPU use with 2 MPI tasks x 1 OpenMP threads

MPI task timing breakdown:
Section |  min time  |  avg time  |  max time  |%varavg| %total
---------------------------------------------------------------
Pair    | 338.63     | 339.91     | 341.18     |   6.9 | 71.23
Neigh   | 28.156     | 28.248     | 28.339     |   1.7 |  5.92
Comm    | 90.502     | 91.269     | 92.036     |   8.0 | 19.13
Output  | 0.0059582  | 0.0066501  | 0.0073421  |   0.8 |  0.00
Modify  | 13.164     | 13.877     | 14.591     |  19.1 |  2.91
Other   |            | 3.885      |            |       |  0.81

Nlocal:            180 ave         183 max         177 min
Histogram: 1 0 0 0 0 0 0 0 0 1
Nghost:           1636 ave        1636 max        1636 min
Histogram: 2 0 0 0 0 0 0 0 0 0
Neighs:        10424.5 ave       10518 max       10331 min
Histogram: 1 0 0 0 0 0 0 0 0 1

Total # of neighbors = 20849
Ave neighs/atom = 57.913889
Neighbor list builds = 84810
Dangerous builds = 625
Total wall time: 0:07:57
