
include ${pot}.lmp
include kalj.lmp
units lj
atom_style atomic

variable dimensions equal 3
variable density equal 1.2
variable fraca equal 0.8

dimension ${dimensions}
dimension 3
read_restart ${prevbasename}.final.lmprestart.${prevsteps}
read_restart equil/kalj_T1_n360_v300_50000_1.final.lmprestart.${prevsteps}
read_restart equil/kalj_T1_n360_v300_50000_1.final.lmprestart.50000
Reading restart file ...
  restart file = 15 Sep 2022, LAMMPS = 15 Sep 2022
  restoring atom style atomic from restart
  orthogonal box = (0 0 0) to (6.6943295 6.6943295 6.6943295)
  1 by 1 by 2 MPI processor grid
  restoring pair style lj/cut from restart
  360 atoms
  read_restart CPU = 0.001 seconds
include ${pot}_particles.lmp
include kalj_particles.lmp
mass * 1.0 #  set mass 1.0 for all types

pair_style lj/cut 2.5
#pair coeffs type1 type2 eps sigma
pair_coeff 1 1 1.0 1.00 2.5
pair_coeff 1 2 1.5 0.80 2.0
pair_coeff 2 2 0.5 0.88 2.2
pair_modify shift yes
reset_timestep 0

print "Setting up annealing run"
Setting up annealing run
dump 1 all atom ${dumptime} ${basename}.lammpstrj
dump 1 all atom 50000 ${basename}.lammpstrj
dump 1 all atom 50000 equil/kalj_T0.9_n360_v300_150000_1.lammpstrj
#dump_modify 1 sort id scale no

restart ${restarttime} ${basename}.restart
restart 150000 ${basename}.restart
restart 150000 equil/kalj_T0.9_n360_v300_150000_1.restart
restart ${steps} ${basename}.final.lmprestart
restart 150000 ${basename}.final.lmprestart
restart 150000 equil/kalj_T0.9_n360_v300_150000_1.final.lmprestart

thermo ${thermotime}
thermo 5000
timestep ${timestep}
timestep 0.002

neighbor 0.5 bin
neigh_modify every 1 delay ${neighborstep} check yes
neigh_modify every 1 delay 25 check yes

velocity all create ${temp} ${id} dist gaussian
velocity all create 0.9 ${id} dist gaussian
velocity all create 0.9 1 dist gaussian
fix 1 all nvt temp ${temp} ${temp} ${taut}
fix 1 all nvt temp 0.9 ${temp} ${taut}
fix 1 all nvt temp 0.9 0.9 ${taut}
fix 1 all nvt temp 0.9 0.9 0.2
Resetting global fix info from restart file:
  fix style: nvt, fix ID: 1
run ${steps}
run 150000
Generated 0 of 1 mixed pair_coeff terms from geometric mixing rule
All restart file global fix info was re-assigned
Neighbor list info ...
  update: every = 1 steps, delay = 25 steps, check = yes
  max neighbors/atom: 2000, page size: 100000
  master list distance cutoff = 3
  ghost atom cutoff = 3
  binsize = 1.5, bins = 5 5 5
  1 neighbor lists, perpetual/occasional/extra = 1 0 0
  (1) pair lj/cut, perpetual
      attributes: half, newton on
      pair build: half/bin/atomonly/newton
      stencil: half/bin/3d
      bin: standard
Per MPI rank memory allocation (min/avg/max) = 4.145 | 4.146 | 4.146 Mbytes
   Step          Temp          E_pair         E_mol          TotEng         Press     
         0   0.9           -6.0712871      0             -4.7250371      9.4233184    
      5000   0.95673881    -6.1307607      0             -4.6996389      9.0664171    
     10000   0.84641342    -6.286578       0             -5.0204846      8.0292818    
     15000   0.94208764    -6.0924586      0             -4.6832525      9.3264394    
     20000   0.93510552    -6.1745049      0             -4.7757429      8.7640937    
     25000   0.84980501    -6.1972198      0             -4.9260531      8.5611954    
     30000   0.86304707    -6.1841709      0             -4.8931963      8.923232     
     35000   0.87701669    -6.1830538      0             -4.871183       8.6970949    
     40000   0.9171943     -6.1751887      0             -4.8032189      8.8269207    
     45000   0.84727246    -6.2109956      0             -4.9436172      8.6522171    
     50000   0.93221232    -6.1375073      0             -4.743073       8.9399384    
     55000   0.84012867    -6.2093657      0             -4.9526732      8.5667212    
     60000   0.87263073    -6.2035668      0             -4.8982567      8.6722256    
     65000   0.95085125    -6.0393635      0             -4.6170486      9.5518058    
     70000   0.87735716    -6.0015874      0             -4.6892073      9.8761489    
     75000   0.87830541    -6.1699073      0             -4.8561088      8.9024335    
     80000   0.87625422    -6.183982       0             -4.8732517      8.638611     
     85000   0.94299288    -6.2131495      0             -4.8025894      8.5190726    
     90000   1.0189194     -6.1499412      0             -4.6258077      9.0478422    
     95000   0.8762851     -6.2280607      0             -4.9172843      8.4661255    
    100000   0.81685642    -6.2114464      0             -4.9895654      8.3433503    
    105000   0.8566337     -6.2732808      0             -4.9918995      7.9573203    
    110000   0.8695559     -6.1134279      0             -4.8127172      9.1262698    
    115000   0.84054243    -6.2122521      0             -4.9549407      8.6302399    
    120000   0.87170772    -6.1023265      0             -4.798397       9.1321938    
    125000   0.91861239    -6.1140929      0             -4.7400019      9.1725636    
    130000   0.93255992    -6.1097087      0             -4.7147545      9.1410975    
    135000   0.91838814    -6.0963461      0             -4.7225905      9.2768183    
    140000   0.92383321    -6.1421458      0             -4.7602453      8.8560366    
    145000   0.84983117    -6.2433971      0             -4.9721913      8.1589835    
    150000   0.87237619    -6.2704213      0             -4.9654919      8.2157257    
Loop time of 23.9457 on 2 procs for 150000 steps with 360 atoms

Performance: 1082446.957 tau/day, 6264.161 timesteps/s, 2.255 Matom-step/s
99.7% CPU use with 2 MPI tasks x 1 OpenMP threads

MPI task timing breakdown:
Section |  min time  |  avg time  |  max time  |%varavg| %total
---------------------------------------------------------------
Pair    | 16.969     | 17.149     | 17.329     |   4.4 | 71.62
Neigh   | 1.2814     | 1.2883     | 1.2952     |   0.6 |  5.38
Comm    | 4.4825     | 4.5863     | 4.69       |   4.8 | 19.15
Output  | 0.0024321  | 0.0025311  | 0.0026301  |   0.2 |  0.01
Modify  | 0.6032     | 0.71051    | 0.81783    |  12.7 |  2.97
Other   |            | 0.209      |            |       |  0.87

Nlocal:            180 ave         183 max         177 min
Histogram: 1 0 0 0 0 0 0 0 0 1
Nghost:           1629 ave        1638 max        1620 min
Histogram: 1 0 0 0 0 0 0 0 0 1
Neighs:          10382 ave       10703 max       10061 min
Histogram: 1 0 0 0 0 0 0 0 0 1

Total # of neighbors = 20764
Ave neighs/atom = 57.677778
Neighbor list builds = 3850
Dangerous builds = 0
Total wall time: 0:00:23
