
include ${pot}.lmp
include kalj.lmp
units lj
atom_style atomic

variable dimensions equal 3
variable density equal 1.2
variable fraca equal 0.8

dimension ${dimensions}
dimension 3
read_restart ${prevbasename}.final.lmprestart.${prevsteps}
read_restart equil/kalj_T0.5_n360_v300_10000000_1.final.lmprestart.${prevsteps}
read_restart equil/kalj_T0.5_n360_v300_10000000_1.final.lmprestart.10000000
Reading restart file ...
  restart file = 15 Sep 2022, LAMMPS = 15 Sep 2022
  restoring atom style atomic from restart
  orthogonal box = (0 0 0) to (6.6943295 6.6943295 6.6943295)
  1 by 1 by 2 MPI processor grid
  restoring pair style lj/cut from restart
  360 atoms
  read_restart CPU = 0.001 seconds
include ${pot}_particles.lmp
include kalj_particles.lmp
mass * 1.0 #  set mass 1.0 for all types

pair_style lj/cut 2.5
#pair coeffs type1 type2 eps sigma
pair_coeff 1 1 1.0 1.00 2.5
pair_coeff 1 2 1.5 0.80 2.0
pair_coeff 2 2 0.5 0.88 2.2
pair_modify shift yes
reset_timestep 0

print "Setting up annealing run"
Setting up annealing run
dump 1 all atom ${dumptime} ${basename}.lammpstrj
dump 1 all atom 3000000 ${basename}.lammpstrj
dump 1 all atom 3000000 equil/kalj_T0.475_n360_v300_30000000_1.lammpstrj
#dump_modify 1 sort id scale no

restart ${restarttime} ${basename}.restart
restart 30000000 ${basename}.restart
restart 30000000 equil/kalj_T0.475_n360_v300_30000000_1.restart
restart ${steps} ${basename}.final.lmprestart
restart 30000000 ${basename}.final.lmprestart
restart 30000000 equil/kalj_T0.475_n360_v300_30000000_1.final.lmprestart

thermo ${thermotime}
thermo 300000
timestep ${timestep}
timestep 0.003

neighbor 0.5 bin
neigh_modify every 1 delay ${neighborstep} check yes
neigh_modify every 1 delay 25 check yes

velocity all create ${temp} ${id} dist gaussian
velocity all create 0.475 ${id} dist gaussian
velocity all create 0.475 1 dist gaussian
fix 1 all nvt temp ${temp} ${temp} ${taut}
fix 1 all nvt temp 0.475 ${temp} ${taut}
fix 1 all nvt temp 0.475 0.475 ${taut}
fix 1 all nvt temp 0.475 0.475 0.3
Resetting global fix info from restart file:
  fix style: nvt, fix ID: 1
run ${steps}
run 30000000
Generated 0 of 1 mixed pair_coeff terms from geometric mixing rule
All restart file global fix info was re-assigned
Neighbor list info ...
  update: every = 1 steps, delay = 25 steps, check = yes
  max neighbors/atom: 2000, page size: 100000
  master list distance cutoff = 3
  ghost atom cutoff = 3
  binsize = 1.5, bins = 5 5 5
  1 neighbor lists, perpetual/occasional/extra = 1 0 0
  (1) pair lj/cut, perpetual
      attributes: half, newton on
      pair build: half/bin/atomonly/newton
      stencil: half/bin/3d
      bin: standard
Per MPI rank memory allocation (min/avg/max) = 4.143 | 4.144 | 4.144 Mbytes
   Step          Temp          E_pair         E_mol          TotEng         Press     
         0   0.475         -6.9302858      0             -6.219765       3.6618412    
    300000   0.45156319    -6.8934849      0             -6.2180216      3.8395003    
    600000   0.45518034    -6.9179412      0             -6.2370673      3.744874     
    900000   0.44749296    -6.9517152      0             -6.2823403      3.4884499    
   1200000   0.44020315    -6.9668842      0             -6.3084136      3.5668637    
   1500000   0.48527996    -6.8796145      0             -6.1537166      3.8357717    
   1800000   0.45795158    -6.9511953      0             -6.266176       3.3340304    
   2100000   0.4612733     -6.9998022      0             -6.3098142      3.2380325    
   2400000   0.47224808    -6.9450648      0             -6.2386604      3.6048781    
   2700000   0.48067998    -6.9806228      0             -6.2616057      3.4367346    
   3000000   0.47977393    -6.8686926      0             -6.1510307      4.0049769    
   3300000   0.4637148     -6.8874433      0             -6.1938032      3.7507049    
   3600000   0.50354753    -6.9644303      0             -6.2112071      3.3645683    
   3900000   0.48129021    -6.9581393      0             -6.2382094      3.3038908    
   4200000   0.48483892    -6.9063614      0             -6.1811232      3.7877167    
   4500000   0.44752548    -6.9547768      0             -6.2853533      3.3732217    
   4800000   0.49345862    -6.9339592      0             -6.1958273      3.5798952    
   5100000   0.48271803    -6.9498871      0             -6.2278214      3.5676916    
   5400000   0.4775762     -6.9269614      0             -6.212587       3.5822403    
   5700000   0.43290569    -6.9740019      0             -6.3264472      3.3699       
   6000000   0.4813289     -6.9527932      0             -6.2328054      3.5181351    
   6300000   0.47439746    -6.9550296      0             -6.2454101      3.3983582    
   6600000   0.47917575    -6.911834       0             -6.1950669      3.6715664    
   6900000   0.48376303    -6.8837862      0             -6.1601574      3.9520812    
   7200000   0.46798284    -6.9229512      0             -6.2229269      3.6282538    
   7500000   0.4960565     -6.9180381      0             -6.1760203      3.6661366    
   7800000   0.49955917    -6.9333869      0             -6.1861296      3.6240351    
   8100000   0.47161375    -6.9778124      0             -6.2723568      3.3790896    
   8400000   0.46015053    -6.9052843      0             -6.2169758      3.6554387    
   8700000   0.49917692    -6.9502753      0             -6.2035899      3.4890239    
   9000000   0.46974381    -6.9478027      0             -6.2451442      3.3410546    
   9300000   0.46909048    -6.967907       0             -6.2662258      3.3327477    
   9600000   0.46948275    -6.9627813      0             -6.2605133      3.441252     
   9900000   0.47713473    -6.8626608      0             -6.1489468      4.0534541    
  10200000   0.47069256    -6.9392144      0             -6.2351367      3.6075645    
  10500000   0.46052656    -6.8826606      0             -6.1937896      3.7607148    
  10800000   0.46000963    -6.9225123      0             -6.2344146      3.5763083    
  11100000   0.481463      -6.9917139      0             -6.2715255      3.1624112    
  11400000   0.4999372     -6.995227       0             -6.2474043      3.1848457    
  11700000   0.47362774    -6.9618829      0             -6.2534148      3.3735164    
  12000000   0.46859721    -7.0178615      0             -6.3169182      3.1174353    
  12300000   0.44597115    -6.9216269      0             -6.2545284      3.6231906    
  12600000   0.45553251    -6.9566216      0             -6.2752209      3.4193547    
  12900000   0.4590696     -6.9663077      0             -6.2796161      3.3530104    
  13200000   0.4860809     -6.9417791      0             -6.2146831      3.6072435    
  13500000   0.48430322    -6.9631579      0             -6.238721       3.4333267    
  13800000   0.50180772    -6.9489172      0             -6.1982965      3.6805154    
  14100000   0.48753401    -6.9859811      0             -6.2567115      3.256678     
  14400000   0.47870159    -6.9134561      0             -6.1973983      3.7020434    
  14700000   0.46022324    -6.9494628      0             -6.2610456      3.4026739    
  15000000   0.45814387    -6.9721945      0             -6.2868876      3.2874323    
  15300000   0.47770267    -6.9643894      0             -6.2498258      3.3310071    
  15600000   0.47040263    -6.9904844      0             -6.2868404      3.1711914    
  15900000   0.4707296     -6.9541538      0             -6.2500208      3.497198     
  16200000   0.4865799     -6.9087053      0             -6.1808629      3.5387332    
  16500000   0.46448649    -6.9230188      0             -6.2282244      3.5416822    
  16800000   0.5154955     -6.9543942      0             -6.1832988      3.5096676    
  17100000   0.48515985    -6.984582       0             -6.2588637      3.2018727    
  17400000   0.48405258    -6.9247799      0             -6.200718       3.5629533    
  17700000   0.45132016    -6.9504323      0             -6.2753325      3.5183275    
  18000000   0.49066857    -6.8989044      0             -6.164946       3.7376046    
  18300000   0.45887134    -6.9531209      0             -6.2667259      3.5353253    
  18600000   0.48290857    -6.9259102      0             -6.2035595      3.4887562    
  18900000   0.48119575    -6.9153867      0             -6.195598       3.5977236    
  19200000   0.51281741    -6.9495168      0             -6.1824275      3.4694303    
  19500000   0.48421607    -6.9619825      0             -6.2376759      3.3501685    
  19800000   0.4537372     -6.9382998      0             -6.2595846      3.5164397    
  20100000   0.4397202     -6.9553402      0             -6.297592       3.4772609    
  20400000   0.48900548    -6.9211483      0             -6.1896776      3.6623632    
  20700000   0.46855163    -6.8840421      0             -6.183167       3.9320929    
  21000000   0.5348837     -6.9780536      0             -6.1779567      3.4576208    
  21300000   0.45813157    -6.9311486      0             -6.2458601      3.6464786    
  21600000   0.45255528    -6.9600022      0             -6.2830549      3.4460455    
  21900000   0.43345843    -6.9797957      0             -6.3314141      3.1651589    
  22200000   0.47226582    -6.9247501      0             -6.2183192      3.7643907    
  22500000   0.49210127    -6.9902752      0             -6.2541737      3.120834     
  22800000   0.48768611    -6.8802982      0             -6.1508011      4.0354948    
  23100000   0.47052953    -7.0036859      0             -6.2998522      3.0960165    
  23400000   0.48246184    -7.0322487      0             -6.3105662      3.1294479    
  23700000   0.48815509    -6.9976329      0             -6.2674342      3.23547      
  24000000   0.4974801     -6.9947447      0             -6.2505974      3.1774094    
  24300000   0.43806547    -6.9442359      0             -6.288963       3.4325339    
  24600000   0.4622611     -6.913439       0             -6.2219734      3.5631595    
  24900000   0.49338124    -6.9659734      0             -6.2279573      3.4416112    
  25200000   0.44992854    -6.9752137      0             -6.3021956      3.4274952    
  25500000   0.53379159    -7.0217899      0             -6.2233266      3.0490183    
  25800000   0.50304619    -6.9515427      0             -6.1990695      3.494933     
  26100000   0.46667154    -6.9961999      0             -6.2981371      3.2933039    
  26400000   0.45906036    -6.9737156      0             -6.2870379      3.2982697    
  26700000   0.46660486    -6.9128026      0             -6.2148395      3.7504319    
  27000000   0.50104369    -6.9257358      0             -6.1762579      3.7441201    
  27300000   0.47569022    -6.9725928      0             -6.2610395      3.4060762    
  27600000   0.49135045    -7.0169165      0             -6.2819381      3.1343535    
  27900000   0.48029294    -6.9540732      0             -6.235635       3.4436427    
  28200000   0.4698392     -6.9616287      0             -6.2588276      3.4278647    
  28500000   0.47281295    -6.9816654      0             -6.274416       3.2089262    
  28800000   0.50073283    -6.9451956      0             -6.1961827      3.5629731    
  29100000   0.45697597    -6.8693034      0             -6.1857436      4.0072581    
  29400000   0.46759437    -6.9508371      0             -6.2513939      3.3154859    
  29700000   0.45245753    -6.9733175      0             -6.2965164      3.3125955    
  30000000   0.48971152    -6.989752       0             -6.2572252      3.1664206    
Loop time of 4748.26 on 2 procs for 30000000 steps with 360 atoms

Performance: 1637653.227 tau/day, 6318.107 timesteps/s, 2.275 Matom-step/s
99.8% CPU use with 2 MPI tasks x 1 OpenMP threads

MPI task timing breakdown:
Section |  min time  |  avg time  |  max time  |%varavg| %total
---------------------------------------------------------------
Pair    | 3376.5     | 3398.1     | 3419.7     |  37.1 | 71.57
Neigh   | 255.19     | 255.75     | 256.31     |   3.5 |  5.39
Comm    | 900.2      | 913.27     | 926.34     |  43.3 | 19.23
Output  | 0.15189    | 0.1528     | 0.1537     |   0.2 |  0.00
Modify  | 127.26     | 139.47     | 151.69     | 103.4 |  2.94
Other   |            | 41.49      |            |       |  0.87

Nlocal:            180 ave         183 max         177 min
Histogram: 1 0 0 0 0 0 0 0 0 1
Nghost:         1639.5 ave        1641 max        1638 min
Histogram: 1 0 0 0 0 0 0 0 0 1
Neighs:          10389 ave       10430 max       10348 min
Histogram: 1 0 0 0 0 0 0 0 0 1

Total # of neighbors = 20778
Ave neighs/atom = 57.716667
Neighbor list builds = 770086
Dangerous builds = 1007
Total wall time: 1:19:08
